\* column_knapsack_problem *\
Minimize
knapsack: 11 col_0 + 11 col_115 + 11 col_120 + 11 col_122 + 11 col_144
 + 12 col_160 + 11 col_171 + 11 col_21 + 11 col_27 + 11 col_3 + 11 col_32
 + 12 col_33 + 11 col_40 + 10 col_62 + 11 col_63 + 12 col_88 + 12 col_90
 + 11 col_98
Subject To
sensitivity: col_0 + col_115 + col_120 + col_122 + col_144 + col_171 + col_21
 + col_27 + col_3 + col_32 + col_40 + 2 col_62 + col_63 + col_98 >= 10.5
Bounds
 col_0 <= 1
 col_115 <= 1
 col_120 <= 1
 col_122 <= 1
 col_144 <= 1
 col_160 <= 1
 col_171 <= 1
 col_21 <= 1
 col_27 <= 1
 col_3 <= 1
 col_32 <= 1
 col_33 <= 1
 col_40 <= 1
 col_62 <= 1
 col_63 <= 1
 col_88 <= 1
 col_90 <= 1
 col_98 <= 1
End
