\* row_knapsack_problem *\
Minimize
knapsack: 11 row_0 + 8 row_1 + 28 row_11 + 15 row_14 + 14 row_15 + 24 row_17
 + 7 row_18 + 25 row_2 + 10 row_20 + 16 row_22 + 11 row_23 + 23 row_24
 + 15 row_25 + 18 row_26 + 11 row_27 + 17 row_28 + 18 row_3 + 43 row_32
 + 15 row_33 + 24 row_34 + 17 row_35 + 23 row_36 + 19 row_37 + 9 row_38
 + 38 row_39 + 44 row_4 + 29 row_40 + 9 row_41 + 25 row_43 + 18 row_44
 + 28 row_6 + 16 row_7 + 25 row_8 + 20 row_9
Subject To
sensitivity: 189 row_0 + 192 row_1 + 172 row_11 + 185 row_14 + 186 row_15
 + 176 row_17 + 193 row_18 + 175 row_2 + 190 row_20 + 184 row_22 + 189 row_23
 + 177 row_24 + 185 row_25 + 182 row_26 + 189 row_27 + 183 row_28 + 182 row_3
 + 157 row_32 + 185 row_33 + 176 row_34 + 183 row_35 + 177 row_36 + 181 row_37
 + 191 row_38 + 162 row_39 + 156 row_4 + 171 row_40 + 191 row_41 + 175 row_43
 + 182 row_44 + 172 row_6 + 184 row_7 + 175 row_8 + 180 row_9 >= 1731.1
Bounds
 row_0 <= 1
 row_1 <= 1
 row_11 <= 1
 row_14 <= 1
 row_15 <= 1
 row_17 <= 1
 row_18 <= 1
 row_2 <= 1
 row_20 <= 1
 row_22 <= 1
 row_23 <= 1
 row_24 <= 1
 row_25 <= 1
 row_26 <= 1
 row_27 <= 1
 row_28 <= 1
 row_3 <= 1
 row_32 <= 1
 row_33 <= 1
 row_34 <= 1
 row_35 <= 1
 row_36 <= 1
 row_37 <= 1
 row_38 <= 1
 row_39 <= 1
 row_4 <= 1
 row_40 <= 1
 row_41 <= 1
 row_43 <= 1
 row_44 <= 1
 row_6 <= 1
 row_7 <= 1
 row_8 <= 1
 row_9 <= 1
End
