\* König_E *\
Minimize
min_degrees: 6 col_101 + 6 col_104 + 8 col_113 + 7 col_122 + 7 col_123
 + 7 col_124 + 7 col_140 + 7 col_143 + 6 col_167 + 7 col_177 + 8 col_178
 + 8 col_181 + 6 col_182 + 7 col_183 + 6 col_185 + 5 col_197 + 7 col_213
 + 7 col_214 + 6 col_217 + 9 col_220 + 7 col_222 + 6 col_232 + 7 col_235
 + 5 col_236 + 6 col_251 + 7 col_280 + 6 col_286 + 7 col_304 + 7 col_328
 + 6 col_331 + 8 col_340 + 6 col_354 + 5 col_358 + 5 col_37 + 7 col_374
 + 7 col_377 + 7 col_404 + 7 col_41 + 8 col_417 + 6 col_436 + 7 col_439
 + 6 col_44 + 6 col_52 + 6 col_57 + 8 col_62 + 7 col_81 + 7 col_83 + 7 col_95
 + 7 col_97 + 31 row_16 + 37 row_17 + 25 row_23 + 34 row_24 + 26 row_3
 + 39 row_36 + 30 row_4 + 29 row_41 + 32 row_46 + 25 row_47 + 20 row_62
Subject To
edge_16_113: col_113 + row_16 >= 1
edge_16_123: col_123 + row_16 >= 1
edge_16_140: col_140 + row_16 >= 1
edge_16_143: col_143 + row_16 >= 1
edge_16_167: col_167 + row_16 >= 1
edge_16_177: col_177 + row_16 >= 1
edge_16_185: col_185 + row_16 >= 1
edge_16_214: col_214 + row_16 >= 1
edge_16_232: col_232 + row_16 >= 1
edge_16_235: col_235 + row_16 >= 1
edge_16_251: col_251 + row_16 >= 1
edge_16_328: col_328 + row_16 >= 1
edge_16_331: col_331 + row_16 >= 1
edge_16_37: col_37 + row_16 >= 1
edge_16_41: col_41 + row_16 >= 1
edge_16_417: col_417 + row_16 >= 1
edge_16_44: col_44 + row_16 >= 1
edge_16_83: col_83 + row_16 >= 1
edge_17_122: col_122 + row_17 >= 1
edge_17_182: col_182 + row_17 >= 1
edge_17_185: col_185 + row_17 >= 1
edge_17_222: col_222 + row_17 >= 1
edge_17_280: col_280 + row_17 >= 1
edge_17_354: col_354 + row_17 >= 1
edge_17_358: col_358 + row_17 >= 1
edge_17_377: col_377 + row_17 >= 1
edge_17_436: col_436 + row_17 >= 1
edge_17_439: col_439 + row_17 >= 1
edge_17_52: col_52 + row_17 >= 1
edge_17_57: col_57 + row_17 >= 1
edge_23_101: col_101 + row_23 >= 1
edge_23_104: col_104 + row_23 >= 1
edge_23_182: col_182 + row_23 >= 1
edge_23_183: col_183 + row_23 >= 1
edge_23_185: col_185 + row_23 >= 1
edge_23_197: col_197 + row_23 >= 1
edge_23_213: col_213 + row_23 >= 1
edge_23_214: col_214 + row_23 >= 1
edge_23_232: col_232 + row_23 >= 1
edge_23_235: col_235 + row_23 >= 1
edge_23_236: col_236 + row_23 >= 1
edge_23_286: col_286 + row_23 >= 1
edge_23_304: col_304 + row_23 >= 1
edge_23_340: col_340 + row_23 >= 1
edge_23_354: col_354 + row_23 >= 1
edge_23_358: col_358 + row_23 >= 1
edge_23_37: col_37 + row_23 >= 1
edge_23_374: col_374 + row_23 >= 1
edge_23_377: col_377 + row_23 >= 1
edge_23_436: col_436 + row_23 >= 1
edge_23_52: col_52 + row_23 >= 1
edge_23_57: col_57 + row_23 >= 1
edge_23_62: col_62 + row_23 >= 1
edge_23_97: col_97 + row_23 >= 1
edge_24_178: col_178 + row_24 >= 1
edge_24_181: col_181 + row_24 >= 1
edge_24_183: col_183 + row_24 >= 1
edge_24_197: col_197 + row_24 >= 1
edge_24_222: col_222 + row_24 >= 1
edge_24_280: col_280 + row_24 >= 1
edge_24_286: col_286 + row_24 >= 1
edge_24_354: col_354 + row_24 >= 1
edge_24_358: col_358 + row_24 >= 1
edge_24_37: col_37 + row_24 >= 1
edge_24_404: col_404 + row_24 >= 1
edge_24_436: col_436 + row_24 >= 1
edge_24_439: col_439 + row_24 >= 1
edge_24_52: col_52 + row_24 >= 1
edge_24_95: col_95 + row_24 >= 1
edge_36_167: col_167 + row_36 >= 1
edge_36_178: col_178 + row_36 >= 1
edge_36_197: col_197 + row_36 >= 1
edge_36_222: col_222 + row_36 >= 1
edge_36_280: col_280 + row_36 >= 1
edge_36_286: col_286 + row_36 >= 1
edge_36_304: col_304 + row_36 >= 1
edge_36_404: col_404 + row_36 >= 1
edge_36_52: col_52 + row_36 >= 1
edge_36_57: col_57 + row_36 >= 1
edge_3_101: col_101 + row_3 >= 1
edge_3_104: col_104 + row_3 >= 1
edge_3_113: col_113 + row_3 >= 1
edge_3_122: col_122 + row_3 >= 1
edge_3_124: col_124 + row_3 >= 1
edge_3_140: col_140 + row_3 >= 1
edge_3_143: col_143 + row_3 >= 1
edge_3_167: col_167 + row_3 >= 1
edge_3_177: col_177 + row_3 >= 1
edge_3_213: col_213 + row_3 >= 1
edge_3_217: col_217 + row_3 >= 1
edge_3_220: col_220 + row_3 >= 1
edge_3_222: col_222 + row_3 >= 1
edge_3_235: col_235 + row_3 >= 1
edge_3_251: col_251 + row_3 >= 1
edge_3_354: col_354 + row_3 >= 1
edge_3_358: col_358 + row_3 >= 1
edge_3_37: col_37 + row_3 >= 1
edge_3_41: col_41 + row_3 >= 1
edge_3_44: col_44 + row_3 >= 1
edge_3_81: col_81 + row_3 >= 1
edge_3_83: col_83 + row_3 >= 1
edge_3_95: col_95 + row_3 >= 1
edge_41_122: col_122 + row_41 >= 1
edge_41_167: col_167 + row_41 >= 1
edge_41_182: col_182 + row_41 >= 1
edge_41_183: col_183 + row_41 >= 1
edge_41_185: col_185 + row_41 >= 1
edge_41_213: col_213 + row_41 >= 1
edge_41_214: col_214 + row_41 >= 1
edge_41_217: col_217 + row_41 >= 1
edge_41_232: col_232 + row_41 >= 1
edge_41_236: col_236 + row_41 >= 1
edge_41_331: col_331 + row_41 >= 1
edge_41_358: col_358 + row_41 >= 1
edge_41_37: col_37 + row_41 >= 1
edge_41_374: col_374 + row_41 >= 1
edge_41_417: col_417 + row_41 >= 1
edge_41_436: col_436 + row_41 >= 1
edge_41_439: col_439 + row_41 >= 1
edge_41_52: col_52 + row_41 >= 1
edge_41_57: col_57 + row_41 >= 1
edge_41_97: col_97 + row_41 >= 1
edge_46_101: col_101 + row_46 >= 1
edge_46_104: col_104 + row_46 >= 1
edge_46_123: col_123 + row_46 >= 1
edge_46_124: col_124 + row_46 >= 1
edge_46_140: col_140 + row_46 >= 1
edge_46_143: col_143 + row_46 >= 1
edge_46_178: col_178 + row_46 >= 1
edge_46_181: col_181 + row_46 >= 1
edge_46_182: col_182 + row_46 >= 1
edge_46_197: col_197 + row_46 >= 1
edge_46_235: col_235 + row_46 >= 1
edge_46_236: col_236 + row_46 >= 1
edge_46_286: col_286 + row_46 >= 1
edge_46_328: col_328 + row_46 >= 1
edge_46_44: col_44 + row_46 >= 1
edge_46_83: col_83 + row_46 >= 1
edge_46_97: col_97 + row_46 >= 1
edge_47_182: col_182 + row_47 >= 1
edge_47_183: col_183 + row_47 >= 1
edge_47_185: col_185 + row_47 >= 1
edge_47_197: col_197 + row_47 >= 1
edge_47_213: col_213 + row_47 >= 1
edge_47_217: col_217 + row_47 >= 1
edge_47_220: col_220 + row_47 >= 1
edge_47_236: col_236 + row_47 >= 1
edge_47_251: col_251 + row_47 >= 1
edge_47_304: col_304 + row_47 >= 1
edge_47_331: col_331 + row_47 >= 1
edge_47_340: col_340 + row_47 >= 1
edge_47_354: col_354 + row_47 >= 1
edge_47_358: col_358 + row_47 >= 1
edge_47_37: col_37 + row_47 >= 1
edge_47_374: col_374 + row_47 >= 1
edge_47_377: col_377 + row_47 >= 1
edge_47_41: col_41 + row_47 >= 1
edge_47_417: col_417 + row_47 >= 1
edge_47_436: col_436 + row_47 >= 1
edge_47_439: col_439 + row_47 >= 1
edge_47_57: col_57 + row_47 >= 1
edge_47_81: col_81 + row_47 >= 1
edge_47_83: col_83 + row_47 >= 1
edge_4_101: col_101 + row_4 >= 1
edge_4_104: col_104 + row_4 >= 1
edge_4_122: col_122 + row_4 >= 1
edge_4_123: col_123 + row_4 >= 1
edge_4_124: col_124 + row_4 >= 1
edge_4_177: col_177 + row_4 >= 1
edge_4_181: col_181 + row_4 >= 1
edge_4_197: col_197 + row_4 >= 1
edge_4_217: col_217 + row_4 >= 1
edge_4_232: col_232 + row_4 >= 1
edge_4_236: col_236 + row_4 >= 1
edge_4_251: col_251 + row_4 >= 1
edge_4_328: col_328 + row_4 >= 1
edge_4_331: col_331 + row_4 >= 1
edge_4_404: col_404 + row_4 >= 1
edge_4_44: col_44 + row_4 >= 1
edge_4_62: col_62 + row_4 >= 1
edge_4_81: col_81 + row_4 >= 1
edge_4_95: col_95 + row_4 >= 1
edge_62_101: col_101 + row_62 >= 1
edge_62_104: col_104 + row_62 >= 1
edge_62_113: col_113 + row_62 >= 1
edge_62_123: col_123 + row_62 >= 1
edge_62_124: col_124 + row_62 >= 1
edge_62_140: col_140 + row_62 >= 1
edge_62_143: col_143 + row_62 >= 1
edge_62_167: col_167 + row_62 >= 1
edge_62_177: col_177 + row_62 >= 1
edge_62_214: col_214 + row_62 >= 1
edge_62_217: col_217 + row_62 >= 1
edge_62_232: col_232 + row_62 >= 1
edge_62_236: col_236 + row_62 >= 1
edge_62_251: col_251 + row_62 >= 1
edge_62_280: col_280 + row_62 >= 1
edge_62_286: col_286 + row_62 >= 1
edge_62_304: col_304 + row_62 >= 1
edge_62_328: col_328 + row_62 >= 1
edge_62_331: col_331 + row_62 >= 1
edge_62_340: col_340 + row_62 >= 1
edge_62_374: col_374 + row_62 >= 1
edge_62_377: col_377 + row_62 >= 1
edge_62_404: col_404 + row_62 >= 1
edge_62_41: col_41 + row_62 >= 1
edge_62_44: col_44 + row_62 >= 1
edge_62_62: col_62 + row_62 >= 1
edge_62_81: col_81 + row_62 >= 1
edge_62_95: col_95 + row_62 >= 1
edge_62_97: col_97 + row_62 >= 1
Bounds
 0 <= col_101 <= 1
 0 <= col_104 <= 1
 0 <= col_113 <= 1
 0 <= col_122 <= 1
 0 <= col_123 <= 1
 0 <= col_124 <= 1
 0 <= col_140 <= 1
 0 <= col_143 <= 1
 0 <= col_167 <= 1
 0 <= col_177 <= 1
 0 <= col_178 <= 1
 0 <= col_181 <= 1
 0 <= col_182 <= 1
 0 <= col_183 <= 1
 0 <= col_185 <= 1
 0 <= col_197 <= 1
 0 <= col_213 <= 1
 0 <= col_214 <= 1
 0 <= col_217 <= 1
 0 <= col_220 <= 1
 0 <= col_222 <= 1
 0 <= col_232 <= 1
 0 <= col_235 <= 1
 0 <= col_236 <= 1
 0 <= col_251 <= 1
 0 <= col_280 <= 1
 0 <= col_286 <= 1
 0 <= col_304 <= 1
 0 <= col_328 <= 1
 0 <= col_331 <= 1
 0 <= col_340 <= 1
 0 <= col_354 <= 1
 0 <= col_358 <= 1
 0 <= col_37 <= 1
 0 <= col_374 <= 1
 0 <= col_377 <= 1
 0 <= col_404 <= 1
 0 <= col_41 <= 1
 0 <= col_417 <= 1
 0 <= col_436 <= 1
 0 <= col_439 <= 1
 0 <= col_44 <= 1
 0 <= col_52 <= 1
 0 <= col_57 <= 1
 0 <= col_62 <= 1
 0 <= col_81 <= 1
 0 <= col_83 <= 1
 0 <= col_95 <= 1
 0 <= col_97 <= 1
 0 <= row_16 <= 1
 0 <= row_17 <= 1
 0 <= row_23 <= 1
 0 <= row_24 <= 1
 0 <= row_3 <= 1
 0 <= row_36 <= 1
 0 <= row_4 <= 1
 0 <= row_41 <= 1
 0 <= row_46 <= 1
 0 <= row_47 <= 1
 0 <= row_62 <= 1
End
